Route #1: 40 46 32 6
Route #2: 4 30 49 33 35 38
Route #3: 7 39 26 13 44 11
Route #4: 22 9 27 18 24 52
Route #5: 47 37 23 16 19 48
Route #6: 5 36 8 15 25 51 41 53
Route #7: 12 1 45 43 54 28
Route #8: 21 29 42 14 34 2 20
Route #9: 56 55 31 17 10 3 50
cost 1740.657470703125